111927
67, 14, 62, 70, 80, 26, 36, 66, 71, 54, 45, 46, 73, 64, 10, 29, 1, 37, 18, 13, 21, 48, 31, 24, 19, 5, 22, 44, 68, 59, 8, 53, 4, 50, 65, 52, 41, 39, 63, 83, 28, 35, 2, 51, 72, 43, 81, 47, 60, 49, 34, 57, 12, 3, 23, 55, 25, 42, 69, 78, 15, 61, 79, 6, 30, 38, 16, 11, 75, 82, 40, 33, 27, 7, 56, 17, 74, 32, 58, 77, 9, 20, 76
